numOfMachines = 4;
numOfRobots = 2;
numOfJobs = 6;
maxOperations = 3;
operationsCount = [3,3,3,3,3,3];

operation = [
[<0,0,0>,<1,18,0>,<2,22,0>,<4,14,1>],
[<0,0,0>,<1,38,0>,<2,40,0>,<4,26,0>],
[<0,0,0>,<2,28,0>,<3,40,1>,<4,18,0>],
[<0,0,0>,<2,28,0>,<3,40,0>,<4,18,0>],
[<0,0,0>,<1,22,0>,<3,32,1>,<4,16,0>],
[<0,0,0>,<1,20,0>,<3,24,0>,<4,20,0>]
];